p tw 43 89
5 41
5 7
5 16
5 8
5 20
5 18
5 13
10 13
10 17
10 16
10 19
14 16
1 4
1 3
6 16
6 12
6 11
2 19
2 17
2 11
12 14
12 13
12 18
12 16
8 16
4 15
4 12
4 14
15 43
15 19
42 43
24 36
24 25
24 33
24 26
37 40
25 38
25 27
29 39
21 38
21 37
21 39
33 36
33 35
28 39
28 35
28 37
38 42
13 17
13 15
41 43
32 37
32 34
32 43
34 40
34 38
22 23
22 36
22 33
22 39
22 35
27 29
27 34
27 40
27 39
27 28
7 42
7 13
7 18
3 10
3 9
3 17
3 15
35 37
16 20
16 19
31 32
31 37
11 19
11 12
26 41
26 27
26 37
26 38
26 32
30 31
30 36
30 38
30 40
